c turning on binary mode checking
c parsing input formula with 202048 variables and 780990 clauses
c finished parsing, read 2294198 bytes from proof file
c detected empty clause; start verification via backward checking
c 5972 of 780990 clauses in core                            
c 2371 of 88484 lemmas in core using 142753 resolution steps
c 0 RAT lemmas in core; 732 redundant literals in core lemmas
s VERIFIED
c verification time: 0.918 seconds
